p cnf 232 855
c p weight 18 -1 0
c p weight -18 1 0
c p weight 20 6.12323399573676603586882014729198302312846062338790031898128063403419218957424163818359375E-17 0
c p weight -20 1 0
c p weight 21 1 0
c p weight -21 1 0
c p weight 22 -1 0
c p weight -22 1 0
c p weight 24 -1 0
c p weight -24 1 0
c p weight 26 -1 0
c p weight -26 1 0
c p weight 28 6.12323399573676603586882014729198302312846062338790031898128063403419218957424163818359375E-17 0
c p weight -28 1 0
c p weight 29 1 0
c p weight -29 1 0
c p weight 30 -1 0
c p weight -30 1 0
c p weight 32 -1 0
c p weight -32 1 0
c p weight 34 -1 0
c p weight -34 1 0
c p weight 36 6.12323399573676603586882014729198302312846062338790031898128063403419218957424163818359375E-17 0
c p weight -36 1 0
c p weight 37 1 0
c p weight -37 1 0
c p weight 38 -1 0
c p weight -38 1 0
c p weight 40 -1 0
c p weight -40 1 0
c p weight 43 -1 0
c p weight -43 1 0
c p weight 45 -1 0
c p weight -45 1 0
c p weight 47 6.12323399573676603586882014729198302312846062338790031898128063403419218957424163818359375E-17 0
c p weight -47 1 0
c p weight 48 1 0
c p weight -48 1 0
c p weight 49 -1 0
c p weight -49 1 0
c p weight 51 -1 0
c p weight -51 1 0
c p weight 53 -1 0
c p weight -53 1 0
c p weight 55 6.12323399573676603586882014729198302312846062338790031898128063403419218957424163818359375E-17 0
c p weight -55 1 0
c p weight 56 1 0
c p weight -56 1 0
c p weight 57 -1 0
c p weight -57 1 0
c p weight 59 -1 0
c p weight -59 1 0
c p weight 61 -1 0
c p weight -61 1 0
c p weight 63 6.12323399573676603586882014729198302312846062338790031898128063403419218957424163818359375E-17 0
c p weight -63 1 0
c p weight 64 1 0
c p weight -64 1 0
c p weight 65 -1 0
c p weight -65 1 0
c p weight 67 -1 0
c p weight -67 1 0
c p weight 70 -1 0
c p weight -70 1 0
c p weight 72 -1 0
c p weight -72 1 0
c p weight 74 6.12323399573676603586882014729198302312846062338790031898128063403419218957424163818359375E-17 0
c p weight -74 1 0
c p weight 75 1 0
c p weight -75 1 0
c p weight 76 -1 0
c p weight -76 1 0
c p weight 78 -1 0
c p weight -78 1 0
c p weight 80 -1 0
c p weight -80 1 0
c p weight 82 6.12323399573676603586882014729198302312846062338790031898128063403419218957424163818359375E-17 0
c p weight -82 1 0
c p weight 83 1 0
c p weight -83 1 0
c p weight 84 -1 0
c p weight -84 1 0
c p weight 86 -1 0
c p weight -86 1 0
c p weight 89 -1 0
c p weight -89 1 0
c p weight 91 -1 0
c p weight -91 1 0
c p weight 93 6.12323399573676603586882014729198302312846062338790031898128063403419218957424163818359375E-17 0
c p weight -93 1 0
c p weight 94 1 0
c p weight -94 1 0
c p weight 95 -1 0
c p weight -95 1 0
c p weight 97 -1 0
c p weight -97 1 0
c p weight 99 -1 0
c p weight -99 1 0
c p weight 101 6.12323399573676603586882014729198302312846062338790031898128063403419218957424163818359375E-17 0
c p weight -101 1 0
c p weight 102 1 0
c p weight -102 1 0
c p weight 103 -1 0
c p weight -103 1 0
c p weight 105 -1 0
c p weight -105 1 0
c p weight 107 -1 0
c p weight -107 1 0
c p weight 109 6.12323399573676603586882014729198302312846062338790031898128063403419218957424163818359375E-17 0
c p weight -109 1 0
c p weight 110 1 0
c p weight -110 1 0
c p weight 111 -1 0
c p weight -111 1 0
c p weight 113 -1 0
c p weight -113 1 0
c p weight 115 -1 0
c p weight -115 1 0
c p weight 117 6.12323399573676603586882014729198302312846062338790031898128063403419218957424163818359375E-17 0
c p weight -117 1 0
c p weight 118 1 0
c p weight -118 1 0
c p weight 119 -1 0
c p weight -119 1 0
c p weight 121 -1 0
c p weight -121 1 0
c p weight 124 -1 0
c p weight -124 1 0
c p weight 126 -1 0
c p weight -126 1 0
c p weight 128 6.12323399573676603586882014729198302312846062338790031898128063403419218957424163818359375E-17 0
c p weight -128 1 0
c p weight 129 1 0
c p weight -129 1 0
c p weight 130 -1 0
c p weight -130 1 0
c p weight 132 -1 0
c p weight -132 1 0
c p weight 134 -1 0
c p weight -134 1 0
c p weight 136 6.12323399573676603586882014729198302312846062338790031898128063403419218957424163818359375E-17 0
c p weight -136 1 0
c p weight 137 1 0
c p weight -137 1 0
c p weight 138 -1 0
c p weight -138 1 0
c p weight 140 -1 0
c p weight -140 1 0
c p weight 142 -1 0
c p weight -142 1 0
c p weight 144 6.12323399573676603586882014729198302312846062338790031898128063403419218957424163818359375E-17 0
c p weight -144 1 0
c p weight 145 1 0
c p weight -145 1 0
c p weight 146 -1 0
c p weight -146 1 0
c p weight 148 -1 0
c p weight -148 1 0
c p weight 150 -1 0
c p weight -150 1 0
c p weight 152 6.12323399573676603586882014729198302312846062338790031898128063403419218957424163818359375E-17 0
c p weight -152 1 0
c p weight 153 1 0
c p weight -153 1 0
c p weight 154 -1 0
c p weight -154 1 0
c p weight 156 -1 0
c p weight -156 1 0
c p weight 159 -1 0
c p weight -159 1 0
c p weight 161 -1 0
c p weight -161 1 0
c p weight 163 6.12323399573676603586882014729198302312846062338790031898128063403419218957424163818359375E-17 0
c p weight -163 1 0
c p weight 164 1 0
c p weight -164 1 0
c p weight 165 -1 0
c p weight -165 1 0
c p weight 167 -1 0
c p weight -167 1 0
c p weight 169 -1 0
c p weight -169 1 0
c p weight 171 6.12323399573676603586882014729198302312846062338790031898128063403419218957424163818359375E-17 0
c p weight -171 1 0
c p weight 172 1 0
c p weight -172 1 0
c p weight 173 -1 0
c p weight -173 1 0
c p weight 175 -1 0
c p weight -175 1 0
c p weight 178 -1 0
c p weight -178 1 0
c p weight 180 -1 0
c p weight -180 1 0
c p weight 182 6.12323399573676603586882014729198302312846062338790031898128063403419218957424163818359375E-17 0
c p weight -182 1 0
c p weight 183 1 0
c p weight -183 1 0
c p weight 184 -1 0
c p weight -184 1 0
c p weight 186 -1 0
c p weight -186 1 0
c p weight 188 -1 0
c p weight -188 1 0
c p weight 190 6.12323399573676603586882014729198302312846062338790031898128063403419218957424163818359375E-17 0
c p weight -190 1 0
c p weight 191 1 0
c p weight -191 1 0
c p weight 192 -1 0
c p weight -192 1 0
c p weight 194 -1 0
c p weight -194 1 0
c p weight 196 -1 0
c p weight -196 1 0
c p weight 198 6.12323399573676603586882014729198302312846062338790031898128063403419218957424163818359375E-17 0
c p weight -198 1 0
c p weight 199 1 0
c p weight -199 1 0
c p weight 200 -1 0
c p weight -200 1 0
c p weight 202 -1 0
c p weight -202 1 0
c p weight 205 -1 0
c p weight -205 1 0
c p weight 207 -1 0
c p weight -207 1 0
c p weight 209 6.12323399573676603586882014729198302312846062338790031898128063403419218957424163818359375E-17 0
c p weight -209 1 0
c p weight 210 1 0
c p weight -210 1 0
c p weight 211 -1 0
c p weight -211 1 0
c p weight 213 -1 0
c p weight -213 1 0
c p weight 215 -1 0
c p weight -215 1 0
c p weight 217 6.12323399573676603586882014729198302312846062338790031898128063403419218957424163818359375E-17 0
c p weight -217 1 0
c p weight 218 1 0
c p weight -218 1 0
c p weight 219 -1 0
c p weight -219 1 0
c p weight 221 -1 0
c p weight -221 1 0
c p weight 224 -1 0
c p weight -224 1 0
c p weight 226 -1 0
c p weight -226 1 0
c p weight 228 6.12323399573676603586882014729198302312846062338790031898128063403419218957424163818359375E-17 0
c p weight -228 1 0
c p weight 229 1 0
c p weight -229 1 0
c p weight 230 -1 0
c p weight -230 1 0
c p weight 232 -1 0
c p weight -232 1 0
-15 0
-13 0
-11 0
-9 0
-7 0
-5 0
-3 0
-1 0
17 1 -2 0
17 -1 2 0
-17 1 2 0
-17 -1 -2 0
-18 1 0
-18 2 0
18 -1 -2 0
19 -1 17 0
-19 1 17 0
-20 17 0
19 -20 -1 0
-19 -20 1 0
19 20 1 -17 0
-19 20 -1 -17 0
-21 17 0
19 -21 1 0
-19 -21 -1 0
19 21 -1 -17 0
-19 21 1 -17 0
-22 19 0
-22 17 0
-22 -1 0
22 -19 1 -17 0
23 19 -17 0
23 -19 17 0
-23 19 17 0
-23 -19 -17 0
-24 19 0
-24 17 0
24 -19 -17 0
25 3 -4 0
25 -3 4 0
-25 3 4 0
-25 -3 -4 0
-26 3 0
-26 4 0
26 -3 -4 0
27 -3 25 0
-27 3 25 0
-28 25 0
27 -28 -3 0
-27 -28 3 0
27 28 3 -25 0
-27 28 -3 -25 0
-29 25 0
27 -29 3 0
-27 -29 -3 0
27 29 -3 -25 0
-27 29 3 -25 0
-30 27 0
-30 25 0
-30 -3 0
30 -27 3 -25 0
31 27 -25 0
31 -27 25 0
-31 27 25 0
-31 -27 -25 0
-32 27 0
-32 25 0
32 -27 -25 0
33 27 -31 0
33 -27 31 0
-33 27 31 0
-33 -27 -31 0
-34 27 0
-34 31 0
34 -27 -31 0
35 -27 33 0
-35 27 33 0
-36 33 0
35 -36 -27 0
-35 -36 27 0
35 36 27 -33 0
-35 36 -27 -33 0
-37 33 0
35 -37 27 0
-35 -37 -27 0
35 37 -27 -33 0
-35 37 27 -33 0
-38 35 0
-38 33 0
-38 -27 0
38 -35 27 -33 0
39 35 -33 0
39 -35 33 0
-39 35 33 0
-39 -35 -33 0
-40 35 0
-40 33 0
40 -35 -33 0
41 19 -35 0
41 -19 35 0
-41 19 35 0
-41 -19 -35 0
42 23 -39 0
42 -23 39 0
-42 23 39 0
-42 -23 -39 0
-43 19 0
-43 39 0
-43 35 -23 0
-43 -35 23 0
43 -19 35 23 -39 0
43 -19 -35 -23 -39 0
44 41 -39 0
44 -41 39 0
-44 41 39 0
-44 -41 -39 0
-45 41 0
-45 39 0
45 -41 -39 0
46 -41 44 0
-46 41 44 0
-47 44 0
46 -47 -41 0
-46 -47 41 0
46 47 41 -44 0
-46 47 -41 -44 0
-48 44 0
46 -48 41 0
-46 -48 -41 0
46 48 -41 -44 0
-46 48 41 -44 0
-49 46 0
-49 44 0
-49 -41 0
49 -46 41 -44 0
50 46 -44 0
50 -46 44 0
-50 46 44 0
-50 -46 -44 0
-51 46 0
-51 44 0
51 -46 -44 0
52 5 -6 0
52 -5 6 0
-52 5 6 0
-52 -5 -6 0
-53 5 0
-53 6 0
53 -5 -6 0
54 -5 52 0
-54 5 52 0
-55 52 0
54 -55 -5 0
-54 -55 5 0
54 55 5 -52 0
-54 55 -5 -52 0
-56 52 0
54 -56 5 0
-54 -56 -5 0
54 56 -5 -52 0
-54 56 5 -52 0
-57 54 0
-57 52 0
-57 -5 0
57 -54 5 -52 0
58 54 -52 0
58 -54 52 0
-58 54 52 0
-58 -54 -52 0
-59 54 0
-59 52 0
59 -54 -52 0
60 54 -58 0
60 -54 58 0
-60 54 58 0
-60 -54 -58 0
-61 54 0
-61 58 0
61 -54 -58 0
62 -54 60 0
-62 54 60 0
-63 60 0
62 -63 -54 0
-62 -63 54 0
62 63 54 -60 0
-62 63 -54 -60 0
-64 60 0
62 -64 54 0
-62 -64 -54 0
62 64 -54 -60 0
-62 64 54 -60 0
-65 62 0
-65 60 0
-65 -54 0
65 -62 54 -60 0
66 62 -60 0
66 -62 60 0
-66 62 60 0
-66 -62 -60 0
-67 62 0
-67 60 0
67 -62 -60 0
68 19 -62 0
68 -19 62 0
-68 19 62 0
-68 -19 -62 0
69 42 -66 0
69 -42 66 0
-69 42 66 0
-69 -42 -66 0
-70 19 0
-70 66 0
-70 62 -42 0
-70 -62 42 0
70 -19 62 42 -66 0
70 -19 -62 -42 -66 0
71 68 -66 0
71 -68 66 0
-71 68 66 0
-71 -68 -66 0
-72 68 0
-72 66 0
72 -68 -66 0
73 -68 71 0
-73 68 71 0
-74 71 0
73 -74 -68 0
-73 -74 68 0
73 74 68 -71 0
-73 74 -68 -71 0
-75 71 0
73 -75 68 0
-73 -75 -68 0
73 75 -68 -71 0
-73 75 68 -71 0
-76 73 0
-76 71 0
-76 -68 0
76 -73 68 -71 0
77 73 -71 0
77 -73 71 0
-77 73 71 0
-77 -73 -71 0
-78 73 0
-78 71 0
78 -73 -71 0
79 73 -77 0
79 -73 77 0
-79 73 77 0
-79 -73 -77 0
-80 73 0
-80 77 0
80 -73 -77 0
81 -73 79 0
-81 73 79 0
-82 79 0
81 -82 -73 0
-81 -82 73 0
81 82 73 -79 0
-81 82 -73 -79 0
-83 79 0
81 -83 73 0
-81 -83 -73 0
81 83 -73 -79 0
-81 83 73 -79 0
-84 81 0
-84 79 0
-84 -73 0
84 -81 73 -79 0
85 81 -79 0
85 -81 79 0
-85 81 79 0
-85 -81 -79 0
-86 81 0
-86 79 0
86 -81 -79 0
87 46 -81 0
87 -46 81 0
-87 46 81 0
-87 -46 -81 0
88 50 -85 0
88 -50 85 0
-88 50 85 0
-88 -50 -85 0
-89 46 0
-89 85 0
-89 81 -50 0
-89 -81 50 0
89 -46 81 50 -85 0
89 -46 -81 -50 -85 0
90 87 -85 0
90 -87 85 0
-90 87 85 0
-90 -87 -85 0
-91 87 0
-91 85 0
91 -87 -85 0
92 -87 90 0
-92 87 90 0
-93 90 0
92 -93 -87 0
-92 -93 87 0
92 93 87 -90 0
-92 93 -87 -90 0
-94 90 0
92 -94 87 0
-92 -94 -87 0
92 94 -87 -90 0
-92 94 87 -90 0
-95 92 0
-95 90 0
-95 -87 0
95 -92 87 -90 0
96 92 -90 0
96 -92 90 0
-96 92 90 0
-96 -92 -90 0
-97 92 0
-97 90 0
97 -92 -90 0
98 7 -8 0
98 -7 8 0
-98 7 8 0
-98 -7 -8 0
-99 7 0
-99 8 0
99 -7 -8 0
100 -7 98 0
-100 7 98 0
-101 98 0
100 -101 -7 0
-100 -101 7 0
100 101 7 -98 0
-100 101 -7 -98 0
-102 98 0
100 -102 7 0
-100 -102 -7 0
100 102 -7 -98 0
-100 102 7 -98 0
-103 100 0
-103 98 0
-103 -7 0
103 -100 7 -98 0
104 100 -98 0
104 -100 98 0
-104 100 98 0
-104 -100 -98 0
-105 100 0
-105 98 0
105 -100 -98 0
106 9 -10 0
106 -9 10 0
-106 9 10 0
-106 -9 -10 0
-107 9 0
-107 10 0
107 -9 -10 0
108 -9 106 0
-108 9 106 0
-109 106 0
108 -109 -9 0
-108 -109 9 0
108 109 9 -106 0
-108 109 -9 -106 0
-110 106 0
108 -110 9 0
-108 -110 -9 0
108 110 -9 -106 0
-108 110 9 -106 0
-111 108 0
-111 106 0
-111 -9 0
111 -108 9 -106 0
112 108 -106 0
112 -108 106 0
-112 108 106 0
-112 -108 -106 0
-113 108 0
-113 106 0
113 -108 -106 0
114 108 -112 0
114 -108 112 0
-114 108 112 0
-114 -108 -112 0
-115 108 0
-115 112 0
115 -108 -112 0
116 -108 114 0
-116 108 114 0
-117 114 0
116 -117 -108 0
-116 -117 108 0
116 117 108 -114 0
-116 117 -108 -114 0
-118 114 0
116 -118 108 0
-116 -118 -108 0
116 118 -108 -114 0
-116 118 108 -114 0
-119 116 0
-119 114 0
-119 -108 0
119 -116 108 -114 0
120 116 -114 0
120 -116 114 0
-120 116 114 0
-120 -116 -114 0
-121 116 0
-121 114 0
121 -116 -114 0
122 100 -116 0
122 -100 116 0
-122 100 116 0
-122 -100 -116 0
123 104 -120 0
123 -104 120 0
-123 104 120 0
-123 -104 -120 0
-124 100 0
-124 120 0
-124 116 -104 0
-124 -116 104 0
124 -100 116 104 -120 0
124 -100 -116 -104 -120 0
125 122 -120 0
125 -122 120 0
-125 122 120 0
-125 -122 -120 0
-126 122 0
-126 120 0
126 -122 -120 0
127 -122 125 0
-127 122 125 0
-128 125 0
127 -128 -122 0
-127 -128 122 0
127 128 122 -125 0
-127 128 -122 -125 0
-129 125 0
127 -129 122 0
-127 -129 -122 0
127 129 -122 -125 0
-127 129 122 -125 0
-130 127 0
-130 125 0
-130 -122 0
130 -127 122 -125 0
131 127 -125 0
131 -127 125 0
-131 127 125 0
-131 -127 -125 0
-132 127 0
-132 125 0
132 -127 -125 0
133 11 -12 0
133 -11 12 0
-133 11 12 0
-133 -11 -12 0
-134 11 0
-134 12 0
134 -11 -12 0
135 -11 133 0
-135 11 133 0
-136 133 0
135 -136 -11 0
-135 -136 11 0
135 136 11 -133 0
-135 136 -11 -133 0
-137 133 0
135 -137 11 0
-135 -137 -11 0
135 137 -11 -133 0
-135 137 11 -133 0
-138 135 0
-138 133 0
-138 -11 0
138 -135 11 -133 0
139 135 -133 0
139 -135 133 0
-139 135 133 0
-139 -135 -133 0
-140 135 0
-140 133 0
140 -135 -133 0
141 13 -14 0
141 -13 14 0
-141 13 14 0
-141 -13 -14 0
-142 13 0
-142 14 0
142 -13 -14 0
143 -13 141 0
-143 13 141 0
-144 141 0
143 -144 -13 0
-143 -144 13 0
143 144 13 -141 0
-143 144 -13 -141 0
-145 141 0
143 -145 13 0
-143 -145 -13 0
143 145 -13 -141 0
-143 145 13 -141 0
-146 143 0
-146 141 0
-146 -13 0
146 -143 13 -141 0
147 143 -141 0
147 -143 141 0
-147 143 141 0
-147 -143 -141 0
-148 143 0
-148 141 0
148 -143 -141 0
149 143 -147 0
149 -143 147 0
-149 143 147 0
-149 -143 -147 0
-150 143 0
-150 147 0
150 -143 -147 0
151 -143 149 0
-151 143 149 0
-152 149 0
151 -152 -143 0
-151 -152 143 0
151 152 143 -149 0
-151 152 -143 -149 0
-153 149 0
151 -153 143 0
-151 -153 -143 0
151 153 -143 -149 0
-151 153 143 -149 0
-154 151 0
-154 149 0
-154 -143 0
154 -151 143 -149 0
155 151 -149 0
155 -151 149 0
-155 151 149 0
-155 -151 -149 0
-156 151 0
-156 149 0
156 -151 -149 0
157 127 -151 0
157 -127 151 0
-157 127 151 0
-157 -127 -151 0
158 131 -155 0
158 -131 155 0
-158 131 155 0
-158 -131 -155 0
-159 127 0
-159 155 0
-159 151 -131 0
-159 -151 131 0
159 -127 151 131 -155 0
159 -127 -151 -131 -155 0
160 157 -155 0
160 -157 155 0
-160 157 155 0
-160 -157 -155 0
-161 157 0
-161 155 0
161 -157 -155 0
162 -157 160 0
-162 157 160 0
-163 160 0
162 -163 -157 0
-162 -163 157 0
162 163 157 -160 0
-162 163 -157 -160 0
-164 160 0
162 -164 157 0
-162 -164 -157 0
162 164 -157 -160 0
-162 164 157 -160 0
-165 162 0
-165 160 0
-165 -157 0
165 -162 157 -160 0
166 162 -160 0
166 -162 160 0
-166 162 160 0
-166 -162 -160 0
-167 162 0
-167 160 0
167 -162 -160 0
168 162 -166 0
168 -162 166 0
-168 162 166 0
-168 -162 -166 0
-169 162 0
-169 166 0
169 -162 -166 0
170 -162 168 0
-170 162 168 0
-171 168 0
170 -171 -162 0
-170 -171 162 0
170 171 162 -168 0
-170 171 -162 -168 0
-172 168 0
170 -172 162 0
-170 -172 -162 0
170 172 -162 -168 0
-170 172 162 -168 0
-173 170 0
-173 168 0
-173 -162 0
173 -170 162 -168 0
174 170 -168 0
174 -170 168 0
-174 170 168 0
-174 -170 -168 0
-175 170 0
-175 168 0
175 -170 -168 0
176 135 -170 0
176 -135 170 0
-176 135 170 0
-176 -135 -170 0
177 139 -174 0
177 -139 174 0
-177 139 174 0
-177 -139 -174 0
-178 135 0
-178 174 0
-178 170 -139 0
-178 -170 139 0
178 -135 170 139 -174 0
178 -135 -170 -139 -174 0
179 176 -174 0
179 -176 174 0
-179 176 174 0
-179 -176 -174 0
-180 176 0
-180 174 0
180 -176 -174 0
181 -176 179 0
-181 176 179 0
-182 179 0
181 -182 -176 0
-181 -182 176 0
181 182 176 -179 0
-181 182 -176 -179 0
-183 179 0
181 -183 176 0
-181 -183 -176 0
181 183 -176 -179 0
-181 183 176 -179 0
-184 181 0
-184 179 0
-184 -176 0
184 -181 176 -179 0
185 181 -179 0
185 -181 179 0
-185 181 179 0
-185 -181 -179 0
-186 181 0
-186 179 0
186 -181 -179 0
187 15 -16 0
187 -15 16 0
-187 15 16 0
-187 -15 -16 0
-188 15 0
-188 16 0
188 -15 -16 0
189 -15 187 0
-189 15 187 0
-190 187 0
189 -190 -15 0
-189 -190 15 0
189 190 15 -187 0
-189 190 -15 -187 0
-191 187 0
189 -191 15 0
-189 -191 -15 0
189 191 -15 -187 0
-189 191 15 -187 0
-192 189 0
-192 187 0
-192 -15 0
192 -189 15 -187 0
193 189 -187 0
193 -189 187 0
-193 189 187 0
-193 -189 -187 0
-194 189 0
-194 187 0
194 -189 -187 0
195 189 -193 0
195 -189 193 0
-195 189 193 0
-195 -189 -193 0
-196 189 0
-196 193 0
196 -189 -193 0
197 -189 195 0
-197 189 195 0
-198 195 0
197 -198 -189 0
-197 -198 189 0
197 198 189 -195 0
-197 198 -189 -195 0
-199 195 0
197 -199 189 0
-197 -199 -189 0
197 199 -189 -195 0
-197 199 189 -195 0
-200 197 0
-200 195 0
-200 -189 0
200 -197 189 -195 0
201 197 -195 0
201 -197 195 0
-201 197 195 0
-201 -197 -195 0
-202 197 0
-202 195 0
202 -197 -195 0
203 100 -197 0
203 -100 197 0
-203 100 197 0
-203 -100 -197 0
204 123 -201 0
204 -123 201 0
-204 123 201 0
-204 -123 -201 0
-205 100 0
-205 201 0
-205 197 -123 0
-205 -197 123 0
205 -100 197 123 -201 0
205 -100 -197 -123 -201 0
206 203 -201 0
206 -203 201 0
-206 203 201 0
-206 -203 -201 0
-207 203 0
-207 201 0
207 -203 -201 0
208 -203 206 0
-208 203 206 0
-209 206 0
208 -209 -203 0
-208 -209 203 0
208 209 203 -206 0
-208 209 -203 -206 0
-210 206 0
208 -210 203 0
-208 -210 -203 0
208 210 -203 -206 0
-208 210 203 -206 0
-211 208 0
-211 206 0
-211 -203 0
211 -208 203 -206 0
212 208 -206 0
212 -208 206 0
-212 208 206 0
-212 -208 -206 0
-213 208 0
-213 206 0
213 -208 -206 0
214 208 -212 0
214 -208 212 0
-214 208 212 0
-214 -208 -212 0
-215 208 0
-215 212 0
215 -208 -212 0
216 -208 214 0
-216 208 214 0
-217 214 0
216 -217 -208 0
-216 -217 208 0
216 217 208 -214 0
-216 217 -208 -214 0
-218 214 0
216 -218 208 0
-216 -218 -208 0
216 218 -208 -214 0
-216 218 208 -214 0
-219 216 0
-219 214 0
-219 -208 0
219 -216 208 -214 0
220 216 -214 0
220 -216 214 0
-220 216 214 0
-220 -216 -214 0
-221 216 0
-221 214 0
221 -216 -214 0
222 135 -216 0
222 -135 216 0
-222 135 216 0
-222 -135 -216 0
223 177 -220 0
223 -177 220 0
-223 177 220 0
-223 -177 -220 0
-224 135 0
-224 220 0
-224 216 -177 0
-224 -216 177 0
224 -135 216 177 -220 0
224 -135 -216 -177 -220 0
225 222 -220 0
225 -222 220 0
-225 222 220 0
-225 -222 -220 0
-226 222 0
-226 220 0
226 -222 -220 0
227 -222 225 0
-227 222 225 0
-228 225 0
227 -228 -222 0
-227 -228 222 0
227 228 222 -225 0
-227 228 -222 -225 0
-229 225 0
227 -229 222 0
-227 -229 -222 0
227 229 -222 -225 0
-227 229 222 -225 0
-230 227 0
-230 225 0
-230 -222 0
230 -227 222 -225 0
231 227 -225 0
231 -227 225 0
-231 227 225 0
-231 -227 -225 0
-232 227 0
-232 225 0
232 -227 -225 0
-19 0
-46 0
-88 0
-92 0
-96 0
-100 0
-204 0
-127 0
-158 0
-135 0
-223 0
-181 0
-185 0
-227 0
-231 0
